20190630 52800.00 30700.00
20180528 40600.00 23500.00
20171211 27000.00 15951.09
20170630 27000.00 15951.09
20161231 27000.00 15783.30
20160630 27000.00 15873.49
20151231 27000.00 15644.23
20150630 27000.00 15644.23
